17	4
14	16	15	16	
0	0	0	0	0	3	2	3	4	
7	0	9	7	3	3	5	6	7	
8	4	0	8	0	3	9	11	12	
9	9	6	6	8	2	10	17	
2	1	6	3	0	3	8	13	17	
225	0	3	3	10	2	13	17	
150	0	0	3	3	2	15	16	
150	2	3	7	3	2	17	17	
150	0	0	7	9	1	17	
125	8	0	8	7	3	16	17	17	
75	0	10	2	7	3	17	17	17	
175	0	5	0	3	2	17	17	
9	3	7	0	4	3	14	15	17	
9	3	6	1	6	3	16	17	17	
10	0	0	8	8	1	17	
1	5	0	7	9	1	17	
0	0	0	0	0	0	
